p cnf 98 392
-1 -2 3 0
-4 -2 3 0
-5 -2 6 0
-7 -2 6 0
-8 -9 3 0
-10 -9 3 0
-11 -9 6 0
-12 -9 6 0
-1 -13 -2 0
-4 -13 -2 0
-5 -14 -2 0
-7 -14 -2 0
-8 -13 -9 0
-10 -13 -9 0
-11 -14 -9 0
-12 -14 -9 0
-1 -13 -15 0
-4 -13 -15 0
-5 -14 -16 0
-7 -14 -16 0
-8 -13 -15 0
-10 -13 -15 0
-11 -14 -16 0
-12 -14 -16 0
-1 -13 -17 0
-4 -13 -17 0
-5 -14 -18 0
-7 -14 -18 0
-8 -13 -17 0
-10 -13 -17 0
-11 -14 -18 0
-12 -14 -18 0
-19 3 0
-20 6 0
-19 14 0
-20 13 0
-19 21 0
-20 22 0
-19 16 0
-20 15 0
-1 -2 -23 24 20 0
-4 -2 -25 24 20 0
-5 -2 -26 27 19 0
-7 -2 -28 27 19 0
-8 -9 -29 24 20 0
-10 -9 -30 24 20 0
-11 -9 -31 27 19 0
-12 -9 -32 27 19 0
-27 14 0
-24 13 0
-27 6 0
-24 3 0
-27 -17 0
-24 -18 0
-33 -34 -13 14 6 0
-34 -33 -14 13 3 0
-35 -36 -13 14 6 0
-36 -35 -14 13 3 0
-33 -34 -13 14 27 19 0
-34 -33 -14 13 24 20 0
-35 -36 -13 14 27 19 0
-36 -35 -14 13 24 20 0
-3 -14 0
-6 -13 0
-13 -27 19 0
-14 -24 20 0
-3 -21 1 0
-3 -21 4 0
-6 -22 5 0
-6 -22 7 0
-3 -21 8 0
-3 -21 10 0
-6 -22 11 0
-6 -22 12 0
-37 -17 0
-38 -18 0
-37 -39 0
-38 -40 0
-39 -15 0
-40 -16 0
-3 21 41 42 43 44 0
-6 22 45 46 47 48 0
-44 -24 0
-48 -27 0
-3 -21 24 20 0
-6 -22 27 19 0
-13 17 26 0
-13 17 28 0
-14 18 23 0
-14 18 25 0
-13 17 31 0
-13 17 32 0
-14 18 29 0
-14 18 30 0
-19 -44 0
-20 -48 0
-19 17 0
-20 18 0
-19 15 0
-20 16 0
-13 27 19 0
-14 24 20 0
-3 44 24 0
-6 48 27 0
-1 26 23 0
-5 26 23 0
-4 28 25 0
-7 28 25 0
-8 31 29 0
-11 31 29 0
-10 32 30 0
-12 32 30 0
-26 1 5 0
-23 1 5 0
-28 4 7 0
-25 4 7 0
-31 8 11 0
-29 8 11 0
-32 10 12 0
-30 10 12 0
-13 15 37 39 0
-14 16 38 40 0
-15 -37 0
-16 -38 0
-43 -43 51 0
-43 -42 52 0
-43 -21 53 0
-43 -44 54 0
-43 -41 55 0
-42 -43 56 0
-42 -42 57 0
-42 -21 58 0
-42 -44 59 0
-42 -41 60 0
-21 -43 61 0
-21 -42 62 0
-21 -21 63 0
-21 -44 64 0
-21 -41 65 0
-44 -43 66 0
-44 -42 67 0
-44 -21 68 0
-44 -44 69 0
-44 -41 70 0
-41 -43 71 0
-41 -42 72 0
-41 -21 73 0
-41 -44 74 0
-41 -41 75 0
-47 -47 51 0
-47 -46 52 0
-47 -22 53 0
-47 -48 54 0
-47 -45 55 0
-46 -47 56 0
-46 -46 57 0
-46 -22 58 0
-46 -48 59 0
-46 -45 60 0
-22 -47 61 0
-22 -46 62 0
-22 -22 63 0
-22 -48 64 0
-22 -45 65 0
-48 -47 66 0
-48 -46 67 0
-48 -22 68 0
-48 -48 69 0
-48 -45 70 0
-45 -47 71 0
-45 -46 72 0
-45 -22 73 0
-45 -48 74 0
-45 -45 75 0
-39 33 35 0
-40 34 36 0
-3 43 42 21 44 41 0
-6 47 46 22 48 45 0
-27 -24 0
-24 -27 0
-19 -20 0
-20 -19 0
-27 76 -27 0
-24 77 -24 0
-19 76 -19 0
-20 77 -20 0
-19 -27 0
-20 -24 0
-15 -27 0
-16 -24 0
-37 -19 0
-38 -20 0
-39 -19 0
-40 -20 0
-37 -5 -26 78 27 0
-37 -7 -28 78 27 0
-37 -11 -31 79 27 0
-37 -12 -32 79 27 0
-38 -1 -23 78 24 0
-38 -4 -25 78 24 0
-38 -8 -29 79 24 0
-38 -10 -30 79 24 0
-37 -5 -26 78 27 0
-37 -7 -28 78 27 0
-37 -11 -31 79 27 0
-37 -12 -32 79 27 0
-38 -1 -23 78 24 0
-38 -4 -25 78 24 0
-38 -8 -29 79 24 0
-38 -10 -30 79 24 0
-37 -5 -26 78 27 0
-37 -7 -28 78 27 0
-37 -11 -31 79 27 0
-37 -12 -32 79 27 0
-38 -1 -23 78 24 0
-38 -4 -25 78 24 0
-38 -8 -29 79 24 0
-38 -10 -30 79 24 0
-39 -5 -26 78 27 0
-39 -7 -28 78 27 0
-39 -11 -31 79 27 0
-39 -12 -32 79 27 0
-40 -1 -23 78 24 0
-40 -4 -25 78 24 0
-40 -8 -29 79 24 0
-40 -10 -30 79 24 0
-39 -5 26 27 0
-39 -7 28 27 0
-39 -11 31 27 0
-39 -12 32 27 0
-40 -1 23 24 0
-40 -4 25 24 0
-40 -8 29 24 0
-40 -10 30 24 0
-39 -5 -26 78 27 0
-39 -7 -28 78 27 0
-39 -11 -31 79 27 0
-39 -12 -32 79 27 0
-40 -1 -23 78 24 0
-40 -4 -25 78 24 0
-40 -8 -29 79 24 0
-40 -10 -30 79 24 0
-33 -34 80 27 24 0
-34 -33 81 24 27 0
-35 -36 80 27 24 0
-36 -35 81 24 27 0
-33 -34 80 -3 -14 24 0
-34 -33 81 -6 -13 27 0
-35 -36 80 -3 -14 24 0
-36 -35 81 -6 -13 27 0
-27 -33 34 0
-27 -35 36 0
-24 -34 33 0
-24 -36 35 0
-1 3 0
-4 3 0
-5 6 0
-7 6 0
-8 3 0
-10 3 0
-11 6 0
-12 6 0
-43 3 0
-42 3 0
-21 3 0
-44 3 0
-41 3 0
-47 6 0
-46 6 0
-22 6 0
-48 6 0
-45 6 0
-27 13 0
-24 14 0
-27 6 0
-24 3 0
-39 13 0
-37 13 0
-15 13 0
-40 14 0
-38 14 0
-16 14 0
-19 13 0
-20 14 0
-19 6 0
-20 3 0
-17 13 0
-49 13 0
-18 14 0
-50 14 0
-26 13 0
-28 13 0
-23 14 0
-25 14 0
-31 13 0
-32 13 0
-29 14 0
-30 14 0
13 3 0
14 6 0
-13 -3 0
-14 -6 0
-39 82 -39 0
-39 83 -37 0
-39 84 -15 0
-37 85 -39 0
-37 86 -37 0
-37 87 -15 0
-15 88 -39 0
-15 89 -37 0
-15 90 -15 0
-40 82 -40 0
-40 83 -38 0
-40 84 -16 0
-38 85 -40 0
-38 86 -38 0
-38 87 -16 0
-16 88 -40 0
-16 89 -38 0
-16 90 -16 0
-17 91 -17 0
-17 92 -49 0
-49 93 -17 0
-49 94 -49 0
-18 91 -18 0
-18 92 -50 0
-50 93 -18 0
-50 94 -50 0
-1 95 -1 0
-4 95 -4 0
-5 95 -5 0
-7 95 -7 0
-1 96 -8 0
-4 96 -10 0
-5 96 -11 0
-7 96 -12 0
-8 97 -1 0
-10 97 -4 0
-11 97 -5 0
-12 97 -7 0
-8 98 -8 0
-10 98 -10 0
-11 98 -11 0
-12 98 -12 0
-1 77 -1 0
-4 77 -4 0
-1 80 -5 0
-4 80 -7 0
-5 81 -1 0
-7 81 -4 0
-5 76 -5 0
-7 76 -7 0
-8 77 -8 0
-10 77 -10 0
-8 80 -11 0
-10 80 -12 0
-11 81 -8 0
-12 81 -10 0
-11 76 -11 0
-12 76 -12 0
-26 95 -26 0
-28 95 -28 0
-23 95 -23 0
-25 95 -25 0
-26 96 -31 0
-28 96 -32 0
-23 96 -29 0
-25 96 -30 0
-31 97 -26 0
-32 97 -28 0
-29 97 -23 0
-30 97 -25 0
-31 98 -31 0
-32 98 -32 0
-29 98 -29 0
-30 98 -30 0
-26 77 -26 0
-28 77 -28 0
-26 80 -23 0
-28 80 -25 0
-23 81 -26 0
-25 81 -28 0
-23 76 -23 0
-25 76 -25 0
-31 77 -31 0
-32 77 -32 0
-31 80 -29 0
-32 80 -30 0
-29 81 -31 0
-30 81 -32 0
-29 76 -29 0
-30 76 -30 0
